============================[ Problem Statistics ]=============================|                                                                             ||  Number of variables:          4242                                         ||  Number of clauses:            9888                                         ||  Parse time:                   0.30 s                                       ||                                                                             |============================[ Search Statistics ]==============================| Conflicts |          ORIGINAL         |          LEARNT          | Progress ||           |    Vars  Clauses Literals |    Limit  Clauses Lit/Cl |          |===============================================================================|       100 |    1591     6093   441364 |     2234      100     53 | 62.501 % |===============================================================================restarts              : 2conflicts             : 168            (368 /sec)decisions             : 339            (0.00 % random) (742 /sec)propagations          : 9997           (21875 /sec)conflict literals     : 11281          (95.30 % deleted)CPU time              : 0.457 sSATISFIABLE